networks/zoo_58_163/zoo_58_163.txt
Number of groups: 53
Flow 1: {1 5} {5 18} 
Flow 2: {19 12} 
Flow 5: {3 14} {14 43} 
Flow 7: {3 13} 
Flow 8: {4 12} {12 41} 
Flow 11: {4 2} {2 19} {19 18} {18 47} 
Flow 13: {5 1} {1 12} 
Flow 17: {6 13} 
Flow 18: {6 18} 
Flow 20: {7 18} {18 13} {13 11} 
Flow 22: {8 18} {18 7} 
Flow 29: {9 18} {18 8} {8 12} 
Flow 33: {9 13} {13 14} {14 20} 
Flow 39: {15 20} {20 49} 
Flow 43: {12 1} {1 30} 
Flow 44: {18 19} {19 2} {2 31} 
Flow 45: {13 3} 
Flow 46: {12 4} {4 33} 
Flow 48: {13 6} {6 35} 
Flow 57: {14 12} {12 17} {17 46} 
Flow 61: {11 15} {15 21} {21 50} 
Flow 68: {14 29} {29 58} 
Flow 74: {12 8} {8 37} 
Flow 83: {12 19} {19 48} 
Flow 85: {14 10} {10 21} 
Flow 86: {15 22} {22 51} 
Flow 87: {24 23} {23 52} 
Flow 89: {13 25} {25 54} 
Flow 90: {13 27} {27 56} 
Flow 91: {13 28} {28 57} 
Flow 93: {14 3} {3 32} 
Flow 95: {18 5} {5 34} 
Flow 99: {15 11} {11 13} {13 9} {9 38} 
Flow 104: {18 16} {16 45} 
Flow 111: {22 23} 
Flow 113: {15 26} {26 25} 
Flow 114: {15 27} 
Flow 115: {15 29} {29 28} 
Flow 119: {17 12} {12 14} {14 15} 
Flow 120: {17 16} {16 18} 
Flow 123: {11 40} 
Flow 130: {20 14} 
Flow 131: {21 10} {10 14} 
Flow 134: {23 22} {22 15} 
Flow 137: {23 24} {24 13} {13 18} 
Flow 138: {25 13} 
Flow 140: {26 15} {15 14} 
Flow 145: {27 13} 
Flow 146: {28 13} 
Flow 148: {28 29} {29 15} {15 44} 
Flow 153: {19 7} {7 36} 
Flow 156: {13 42} 
Flow 163: {29 14} {14 13} {13 24} {24 53} 
Time taken running everything: 1 seconds
