networks/zoo_58_163/zoo_58_163.sol
<?xml version = "1.0" encoding="UTF-8" standalone="yes"?>
<CPLEXSolution version="1.2">
 <header
   problemName="networks/zoo_58_163/zoo_58_163.lp"
   solutionName="incumbent"
   solutionIndex="-1"
   objectiveValue="53"
   solutionTypeValue="3"
   solutionTypeString="primal"
   solutionStatusValue="101"
   solutionStatusString="integer optimal solution"
   solutionMethodString="mip"
   primalFeasible="1"
   dualFeasible="1"
   MIPNodes="0"
   MIPIterations="1501"
   writeLevel="3"/>
 <quality
   epInt="1.0000000000000001e-05"
   epRHS="9.9999999999999995e-07"
   maxIntInfeas="0"
   maxPrimalInfeas="3.5527136788005009e-15"
   maxX="4"
   maxSlack="10"/>
 <variables>
  <variable name="Y(1,5)" index="4" value="1"/>
  <variable name="Y(2,19)" index="74" value="1"/>
  <variable name="Y(5,14)" index="237" value="1"/>
  <variable name="Y(7,3)" index="338" value="1"/>
  <variable name="Y(8,12)" index="403" value="1"/>
  <variable name="Y(11,18)" index="577" value="1"/>
  <variable name="Y(13,1)" index="672" value="1"/>
  <variable name="Y(17,6)" index="901" value="1"/>
  <variable name="Y(18,6)" index="957" value="1"/>
  <variable name="Y(20,13)" index="1076" value="1"/>
  <variable name="Y(22,18)" index="1193" value="1"/>
  <variable name="Y(29,8)" index="1575" value="1"/>
  <variable name="Y(33,14)" index="1805" value="1"/>
  <variable name="Y(39,20)" index="2147" value="1"/>
  <variable name="Y(43,1)" index="2352" value="1"/>
  <variable name="Y(44,2)" index="2409" value="1"/>
  <variable name="Y(45,13)" index="2476" value="1"/>
  <variable name="Y(46,4)" index="2523" value="1"/>
  <variable name="Y(48,6)" index="2637" value="1"/>
  <variable name="Y(57,17)" index="3152" value="1"/>
  <variable name="Y(61,21)" index="3380" value="1"/>
  <variable name="Y(68,29)" index="3780" value="1"/>
  <variable name="Y(74,8)" index="4095" value="1"/>
  <variable name="Y(83,19)" index="4610" value="1"/>
  <variable name="Y(85,10)" index="4713" value="1"/>
  <variable name="Y(86,22)" index="4781" value="1"/>
  <variable name="Y(87,23)" index="4838" value="1"/>
  <variable name="Y(89,25)" index="4952" value="1"/>
  <variable name="Y(90,27)" index="5010" value="1"/>
  <variable name="Y(91,28)" index="5067" value="1"/>
  <variable name="Y(93,3)" index="5154" value="1"/>
  <variable name="Y(95,5)" index="5268" value="1"/>
  <variable name="Y(99,9)" index="5496" value="1"/>
  <variable name="Y(104,16)" index="5783" value="1"/>
  <variable name="Y(111,22)" index="6181" value="1"/>
  <variable name="Y(113,26)" index="6297" value="1"/>
  <variable name="Y(114,15)" index="6342" value="1"/>
  <variable name="Y(115,29)" index="6412" value="1"/>
  <variable name="Y(119,14)" index="6621" value="1"/>
  <variable name="Y(120,16)" index="6679" value="1"/>
  <variable name="Y(123,11)" index="6842" value="1"/>
  <variable name="Y(130,20)" index="7243" value="1"/>
  <variable name="Y(131,10)" index="7289" value="1"/>
  <variable name="Y(134,22)" index="7469" value="1"/>
  <variable name="Y(137,13)" index="7628" value="1"/>
  <variable name="Y(138,25)" index="7696" value="1"/>
  <variable name="Y(140,15)" index="7798" value="1"/>
  <variable name="Y(145,27)" index="8090" value="1"/>
  <variable name="Y(146,28)" index="8147" value="1"/>
  <variable name="Y(148,15)" index="8246" value="1"/>
  <variable name="Y(153,7)" index="8518" value="1"/>
  <variable name="Y(156,13)" index="8692" value="1"/>
  <variable name="Y(163,24)" index="9095" value="1"/>
  <variable name="X(1,5,1)" index="9128" value="1"/>
  <variable name="X(1,12,13)" index="9303" value="1"/>
  <variable name="X(1,30,43)" index="9496" value="1"/>
  <variable name="X(2,19,11)" index="9627" value="1"/>
  <variable name="X(2,31,44)" index="9823" value="1"/>
  <variable name="X(3,13,7)" index="9949" value="1"/>
  <variable name="X(3,14,5)" index="10110" value="1"/>
  <variable name="X(3,32,93)" index="10361" value="1"/>
  <variable name="X(4,2,11)" index="10442" value="1"/>
  <variable name="X(4,12,8)" index="10602" value="1"/>
  <variable name="X(4,33,46)" index="10803" value="1"/>
  <variable name="X(5,1,13)" index="10933" value="1"/>
  <variable name="X(5,18,1)" index="11084" value="1"/>
  <variable name="X(5,34,95)" index="11341" value="1"/>
  <variable name="X(6,13,17)" index="11426" value="1"/>
  <variable name="X(6,18,18)" index="11590" value="1"/>
  <variable name="X(6,35,48)" index="11783" value="1"/>
  <variable name="X(7,18,20)" index="11918" value="1"/>
  <variable name="X(7,36,153)" index="12214" value="1"/>
  <variable name="X(8,12,29)" index="12253" value="1"/>
  <variable name="X(8,18,22)" index="12409" value="1"/>
  <variable name="X(8,37,74)" index="12624" value="1"/>
  <variable name="X(9,13,33)" index="12746" value="1"/>
  <variable name="X(9,18,29)" index="12905" value="1"/>
  <variable name="X(9,38,99)" index="13138" value="1"/>
  <variable name="X(10,14,131)" index="13333" value="1"/>
  <variable name="X(10,21,85)" index="13450" value="1"/>
  <variable name="X(11,13,99)" index="13627" value="1"/>
  <variable name="X(11,15,61)" index="13752" value="1"/>
  <variable name="X(11,40,123)" index="13977" value="1"/>
  <variable name="X(12,1,43)" index="14060" value="1"/>
  <variable name="X(12,4,46)" index="14226" value="1"/>
  <variable name="X(12,8,74)" index="14417" value="1"/>
  <variable name="X(12,14,119)" index="14625" value="1"/>
  <variable name="X(12,17,57)" index="14726" value="1"/>
  <variable name="X(12,19,83)" index="14915" value="1"/>
  <variable name="X(12,41,8)" index="15003" value="1"/>
  <variable name="X(13,3,45)" index="15203" value="1"/>
  <variable name="X(13,6,48)" index="15369" value="1"/>
  <variable name="X(13,9,99)" index="15583" value="1"/>
  <variable name="X(13,11,20)" index="15667" value="1"/>
  <variable name="X(13,14,33)" index="15843" value="1"/>
  <variable name="X(13,18,137)" index="16110" value="1"/>
  <variable name="X(13,24,163)" index="16299" value="1"/>
  <variable name="X(13,25,89)" index="16388" value="1"/>
  <variable name="X(13,27,90)" index="16552" value="1"/>
  <variable name="X(13,28,91)" index="16716" value="1"/>
  <variable name="X(13,42,156)" index="16944" value="1"/>
  <variable name="X(14,3,93)" index="17044" value="1"/>
  <variable name="X(14,10,85)" index="17199" value="1"/>
  <variable name="X(14,12,57)" index="17334" value="1"/>
  <variable name="X(14,13,163)" index="17603" value="1"/>
  <variable name="X(14,15,119)" index="17722" value="1"/>
  <variable name="X(14,20,33)" index="17799" value="1"/>
  <variable name="X(14,29,68)" index="17997" value="1"/>
  <variable name="X(14,43,5)" index="18097" value="1"/>
  <variable name="X(15,11,99)" index="18354" value="1"/>
  <variable name="X(15,14,140)" index="18558" value="1"/>
  <variable name="X(15,20,39)" index="18620" value="1"/>
  <variable name="X(15,21,61)" index="18805" value="1"/>
  <variable name="X(15,22,86)" index="18993" value="1"/>
  <variable name="X(15,26,113)" index="19183" value="1"/>
  <variable name="X(15,27,114)" index="19347" value="1"/>
  <variable name="X(15,29,115)" index="19511" value="1"/>
  <variable name="X(15,44,148)" index="19707" value="1"/>
  <variable name="X(16,18,120)" index="19842" value="1"/>
  <variable name="X(16,45,104)" index="19989" value="1"/>
  <variable name="X(17,12,119)" index="20167" value="1"/>
  <variable name="X(17,16,120)" index="20331" value="1"/>
  <variable name="X(17,46,57)" index="20431" value="1"/>
  <variable name="X(18,5,95)" index="20632" value="1"/>
  <variable name="X(18,7,22)" index="20722" value="1"/>
  <variable name="X(18,8,29)" index="20892" value="1"/>
  <variable name="X(18,13,20)" index="21046" value="1"/>
  <variable name="X(18,16,104)" index="21293" value="1"/>
  <variable name="X(18,19,44)" index="21396" value="1"/>
  <variable name="X(18,47,11)" index="21526" value="1"/>
  <variable name="X(19,2,44)" index="21722" value="1"/>
  <variable name="X(19,7,153)" index="21994" value="1"/>
  <variable name="X(19,12,2)" index="22006" value="1"/>
  <variable name="X(19,18,11)" index="22178" value="1"/>
  <variable name="X(19,48,83)" index="22413" value="1"/>
  <variable name="X(20,14,130)" index="22623" value="1"/>
  <variable name="X(20,49,39)" index="22695" value="1"/>
  <variable name="X(21,10,131)" index="22950" value="1"/>
  <variable name="X(21,50,61)" index="23043" value="1"/>
  <variable name="X(22,15,134)" index="23279" value="1"/>
  <variable name="X(22,23,111)" index="23419" value="1"/>
  <variable name="X(22,51,86)" index="23557" value="1"/>
  <variable name="X(23,22,134)" index="23768" value="1"/>
  <variable name="X(23,24,137)" index="23934" value="1"/>
  <variable name="X(23,52,87)" index="24047" value="1"/>
  <variable name="X(24,13,137)" index="24260" value="1"/>
  <variable name="X(24,23,87)" index="24373" value="1"/>
  <variable name="X(24,53,163)" index="24612" value="1"/>
  <variable name="X(25,13,138)" index="24750" value="1"/>
  <variable name="X(25,54,89)" index="24864" value="1"/>
  <variable name="X(26,15,140)" index="25078" value="1"/>
  <variable name="X(26,25,113)" index="25214" value="1"/>
  <variable name="X(27,13,145)" index="25409" value="1"/>
  <variable name="X(27,56,90)" index="25517" value="1"/>
  <variable name="X(28,13,146)" index="25736" value="1"/>
  <variable name="X(28,29,148)" index="25901" value="1"/>
  <variable name="X(28,57,91)" index="26007" value="1"/>
  <variable name="X(29,14,163)" index="26242" value="1"/>
  <variable name="X(29,15,148)" index="26390" value="1"/>
  <variable name="X(29,28,115)" index="26520" value="1"/>
  <variable name="X(29,58,68)" index="26636" value="1"/>
  <variable name="C(1,5)" index="26733" value="1"/>
  <variable name="C(5,14)" index="26746" value="1"/>
  <variable name="C(8,12)" index="26754" value="1"/>
  <variable name="C(11,2)" index="26763" value="1"/>
  <variable name="C(11,19)" index="26764" value="2"/>
  <variable name="C(11,18)" index="26765" value="2.9999999999999996"/>
  <variable name="C(13,1)" index="26770" value="1"/>
  <variable name="C(20,18)" index="26794" value="1.0000000000000002"/>
  <variable name="C(20,13)" index="26795" value="2.0000000000000004"/>
  <variable name="C(22,18)" index="26801" value="1"/>
  <variable name="C(29,18)" index="26822" value="1"/>
  <variable name="C(29,8)" index="26823" value="2.0000000000000009"/>
  <variable name="C(33,9)" index="26834" value="2.0000000000000027"/>
  <variable name="C(33,13)" index="26835" value="3.0000000000000027"/>
  <variable name="C(33,14)" index="26836" value="4"/>
  <variable name="C(39,20)" index="26856" value="1"/>
  <variable name="C(43,1)" index="26868" value="1"/>
  <variable name="C(44,19)" index="26871" value="1"/>
  <variable name="C(44,2)" index="26872" value="2"/>
  <variable name="C(46,4)" index="26878" value="1"/>
  <variable name="C(48,6)" index="26883" value="1"/>
  <variable name="C(57,12)" index="26907" value="1"/>
  <variable name="C(57,17)" index="26908" value="2"/>
  <variable name="C(61,15)" index="26919" value="1"/>
  <variable name="C(61,21)" index="26920" value="2"/>
  <variable name="C(68,29)" index="26938" value="1"/>
  <variable name="C(74,8)" index="26957" value="1"/>
  <variable name="C(83,19)" index="26982" value="1"/>
  <variable name="C(85,10)" index="26986" value="1"/>
  <variable name="C(86,22)" index="26990" value="1"/>
  <variable name="C(87,23)" index="26994" value="1"/>
  <variable name="C(89,25)" index="27000" value="1"/>
  <variable name="C(90,27)" index="27003" value="1"/>
  <variable name="C(91,28)" index="27006" value="1"/>
  <variable name="C(93,3)" index="27011" value="1"/>
  <variable name="C(95,5)" index="27020" value="1"/>
  <variable name="C(99,11)" index="27035" value="1"/>
  <variable name="C(99,13)" index="27036" value="1.9999999999999982"/>
  <variable name="C(99,9)" index="27037" value="2.9999999999999982"/>
  <variable name="C(104,16)" index="27052" value="1"/>
  <variable name="C(113,26)" index="27079" value="1"/>
  <variable name="C(115,29)" index="27084" value="1"/>
  <variable name="C(119,12)" index="27094" value="1"/>
  <variable name="C(119,14)" index="27095" value="2"/>
  <variable name="C(120,16)" index="27098" value="1"/>
  <variable name="C(131,10)" index="27132" value="1"/>
  <variable name="C(134,22)" index="27145" value="1"/>
  <variable name="C(137,23)" index="27156" value="2"/>
  <variable name="C(137,24)" index="27157" value="3"/>
  <variable name="C(137,13)" index="27158" value="4"/>
  <variable name="C(140,15)" index="27167" value="1"/>
  <variable name="C(148,29)" index="27193" value="1"/>
  <variable name="C(148,15)" index="27194" value="2"/>
  <variable name="C(153,7)" index="27215" value="1"/>
  <variable name="C(163,14)" index="27245" value="1"/>
  <variable name="C(163,13)" index="27246" value="2"/>
  <variable name="C(163,24)" index="27247" value="3"/>
 </variables>
</CPLEXSolution>
